CARPARK_SECTION
34
0 937 729
1 290 389
2 305 598
3 597 252
4 384 692
5 765 921
6 858 508
7 195 847
8 542 475
9 727 455
10 244 505
11 103 770
12 898 857
13 734 807
14 321 97
15 660 115
16 873 637
17 204 651
18 665 614
19 872 225
20 81 301
21 773 286
22 275 255
23 522 623
24 56 75
25 483 872
26 933 130
27 56 894
28 615 940
29 608 800
30 333 928
31 518 86
32 35 565
33 38 431
